
Gurobi 8.1.1 (win64, Python) logging started 10/14/19 13:42:13

Academic license - for non-commercial use only

Gurobi 8.1.1 (win64, Python) logging started 10/14/19 13:43:56

Academic license - for non-commercial use only

Gurobi 8.1.1 (win64, Python) logging started 10/14/19 13:46:52

Academic license - for non-commercial use only

Gurobi 8.1.1 (win64, Python) logging started 10/14/19 13:49:01

Academic license - for non-commercial use only

Gurobi 8.1.1 (win64, Python) logging started 10/14/19 13:50:03

Academic license - for non-commercial use only

Gurobi 8.1.1 (win64, Python) logging started 10/14/19 13:51:20

Academic license - for non-commercial use only

<<<<<<< HEAD
Gurobi 8.1.1 (win64, Python) logging started 10/14/19 17:15:18

Academic license - for non-commercial use only

Gurobi 8.1.1 (win64, Python) logging started 10/14/19 17:18:53
=======
Gurobi 8.0.1 (mac64, Python) logging started Mon Oct 14 17:06:03 2019

Academic license - for non-commercial use only

Gurobi 8.0.1 (mac64, Python) logging started Mon Oct 14 17:14:47 2019

Academic license - for non-commercial use only

Gurobi 8.0.1 (mac64, Python) logging started Mon Oct 14 17:16:10 2019
>>>>>>> 6b079245a637c478ca0d3786e27368d6672c0b86

Academic license - for non-commercial use only
